3 100 1495
9 10 12 4 7 1 5 6 7 3
4 3 3
1 4 4 9
9 4 3
9 7 6
0 40.0 50.0 0.0 0.0 0 240
2 25.0 85.0 10.0 20.0 71 191 8 1 0 0 1 0 0 0 0 0 0
3 22.0 75.0 10.0 30.0 30 150 95 0 0 1 0 0 0 0 0 1 0
4 22.0 85.0 10.0 10.0 64 184 99 1 1 1 0 0 0 0 0 0 0
5 20.0 80.0 10.0 40.0 151 161 28 0 0 0 0 0 1 0 0 0 0
6 20.0 85.0 10.0 20.0 40 160 56 0 1 0 0 0 0 0 0 0 0
7 18.0 75.0 10.0 20.0 96 123 30 0 0 0 1 0 1 0 0 1 0
8 15.0 75.0 10.0 20.0 35 155 21 0 0 0 0 0 0 0 1 1 0
9 15.0 80.0 10.0 10.0 101 111 87 0 1 0 0 0 0 0 1 0 0
10 10.0 35.0 10.0 20.0 101 111 59 0 0 0 0 0 1 0 0 0 0
11 10.0 40.0 10.0 30.0 123 144 12 1 1 0 1 0 0 1 0 1 0
12 8.0 40.0 10.0 40.0 69 79 97 1 0 0 0 0 0 0 0 1 0
13 8.0 45.0 10.0 20.0 32 152 32 1 0 0 1 1 0 0 0 0 0
14 5.0 35.0 10.0 10.0 152 162 58 0 0 0 0 0 0 0 0 1 1
15 5.0 45.0 10.0 10.0 35 117 55 0 0 0 0 0 1 0 0 0 0
16 2.0 40.0 10.0 20.0 68 78 56 0 0 0 0 0 1 0 0 0 0
17 0.0 40.0 10.0 20.0 59 114 76 0 0 1 0 1 0 0 0 0 1
18 0.0 45.0 10.0 20.0 147 180 94 1 0 0 0 0 0 0 1 0 0
19 44.0 5.0 10.0 20.0 79 124 54 0 0 0 0 0 0 1 0 1 0
20 42.0 10.0 10.0 40.0 58 115 82 0 0 1 0 0 0 1 1 1 0
21 42.0 15.0 10.0 10.0 111 162 95 0 0 1 0 0 0 1 0 0 0
22 40.0 5.0 10.0 10.0 45 165 48 1 0 0 0 0 0 0 0 1 0
23 40.0 15.0 10.0 40.0 94 119 36 0 0 0 0 0 0 0 0 1 0
24 38.0 5.0 10.0 30.0 75 85 2 0 0 0 0 0 0 1 0 0 0
25 38.0 15.0 10.0 10.0 128 194 49 1 1 1 1 0 0 0 0 0 0
26 35.0 5.0 10.0 20.0 171 181 79 0 0 0 0 0 0 0 0 1 0
27 95.0 30.0 10.0 30.0 58 171 27 0 0 0 0 0 1 1 0 0 0
28 95.0 35.0 10.0 20.0 60 93 97 0 1 0 0 1 0 0 1 0 1
29 92.0 30.0 10.0 10.0 55 120 67 0 0 0 0 1 0 0 0 1 0
30 90.0 35.0 10.0 10.0 52 112 5 0 0 0 0 1 0 0 0 0 0
31 88.0 30.0 10.0 10.0 75 102 91 0 0 1 0 1 0 0 0 0 0
32 88.0 35.0 10.0 20.0 50 170 84 0 0 0 0 0 1 0 0 0 0
33 87.0 30.0 10.0 10.0 116 175 72 1 0 0 1 0 0 0 1 1 0
34 85.0 25.0 10.0 10.0 51 85 77 0 0 0 0 1 0 0 0 0 0
35 85.0 35.0 10.0 30.0 62 182 10 0 0 0 0 0 0 0 1 0 0
36 67.0 85.0 10.0 20.0 138 169 67 0 0 0 0 1 0 0 1 1 0
37 65.0 85.0 10.0 40.0 43 78 76 1 0 0 0 1 0 0 1 0 0
38 65.0 82.0 10.0 10.0 69 189 76 0 0 1 0 0 0 0 1 1 0
39 62.0 80.0 10.0 30.0 85 95 33 0 0 1 1 1 0 0 1 0 0
40 60.0 80.0 10.0 10.0 36 74 22 0 1 0 0 1 0 1 0 0 1
41 60.0 85.0 10.0 30.0 87 112 48 0 0 0 0 0 1 0 0 0 0
42 58.0 75.0 10.0 20.0 92 121 81 0 1 1 0 1 0 0 0 0 0
43 55.0 80.0 10.0 10.0 33 66 28 0 1 1 0 0 0 0 1 0 0
44 55.0 85.0 10.0 20.0 117 168 7 0 0 0 0 0 0 0 0 1 0
45 55.0 82.0 10.0 10.0 74 84 4 0 0 0 0 0 0 1 0 0 0
46 20.0 82.0 10.0 10.0 37 72 59 0 0 1 0 0 0 0 0 0 0
47 18.0 80.0 10.0 10.0 98 157 23 0 0 0 0 0 1 0 0 0 0
48 2.0 45.0 10.0 10.0 38 109 71 0 0 0 1 0 1 1 0 0 1
49 42.0 5.0 10.0 10.0 64 184 29 1 0 0 0 0 0 0 0 0 0
50 42.0 12.0 10.0 10.0 109 128 46 0 0 0 0 0 1 0 0 0 0
51 72.0 35.0 10.0 30.0 71 191 37 0 1 1 0 0 1 1 1 0 0
52 55.0 20.0 10.0 19.0 69 126 87 0 0 1 1 0 0 0 1 0 0
53 25.0 30.0 10.0 3.0 25 145 6 0 0 0 0 0 0 1 0 0 0
54 20.0 50.0 10.0 5.0 101 111 1 0 0 0 0 0 0 1 0 0 0
55 55.0 60.0 10.0 16.0 127 180 63 0 1 0 0 0 1 0 0 0 0
56 30.0 60.0 10.0 16.0 150 160 39 0 0 0 1 0 0 0 0 1 0
57 50.0 35.0 10.0 19.0 130 159 30 0 1 0 0 0 0 0 0 0 0
58 30.0 25.0 10.0 23.0 82 139 87 0 0 0 0 0 1 0 0 0 0
59 15.0 10.0 10.0 20.0 172 182 38 0 1 1 0 0 0 0 0 1 0
60 10.0 20.0 10.0 19.0 42 162 25 0 0 0 1 0 1 0 1 0 0
61 15.0 60.0 10.0 17.0 137 202 13 1 0 0 0 1 1 0 1 0 0
62 45.0 65.0 10.0 9.0 55 106 73 0 0 0 0 0 0 0 0 0 1
63 65.0 35.0 10.0 3.0 62 72 69 1 0 0 0 0 0 0 0 0 0
64 65.0 20.0 10.0 6.0 39 108 43 0 0 1 0 0 0 0 0 0 1
65 45.0 30.0 10.0 17.0 53 82 21 1 0 1 0 0 0 0 0 0 0
66 35.0 40.0 10.0 16.0 11 43 36 0 0 1 0 0 0 0 0 0 0
67 41.0 37.0 10.0 16.0 134 161 78 0 0 0 0 0 0 1 0 0 0
68 64.0 42.0 10.0 9.0 80 90 86 0 0 0 0 0 0 1 1 0 0
69 40.0 60.0 10.0 21.0 144 173 67 0 1 1 0 0 0 1 0 0 1
70 31.0 52.0 10.0 27.0 51 61 56 0 0 0 0 0 1 0 0 0 0
71 35.0 69.0 10.0 23.0 172 210 56 1 1 0 0 0 0 0 0 0 0
72 65.0 55.0 10.0 14.0 52 107 56 0 1 0 0 0 0 1 1 0 0
73 63.0 65.0 10.0 8.0 27 147 47 0 0 1 0 0 0 0 0 0 0
74 2.0 60.0 10.0 5.0 65 118 48 0 0 0 0 0 1 0 0 0 0
75 20.0 20.0 10.0 8.0 151 161 52 0 0 0 1 0 1 0 0 1 0
76 5.0 5.0 10.0 16.0 57 172 26 0 0 0 0 0 1 0 0 0 0
77 60.0 12.0 10.0 31.0 85 95 73 0 0 0 0 0 1 0 0 0 0
78 23.0 3.0 10.0 7.0 163 173 35 0 0 0 1 0 0 0 1 0 0
79 8.0 56.0 10.0 27.0 90 119 96 1 1 1 0 0 0 0 0 1 0
80 6.0 68.0 10.0 30.0 99 109 83 0 0 0 0 0 0 0 1 0 0
81 47.0 47.0 10.0 13.0 190 222 38 0 0 0 0 0 0 0 0 0 1
82 49.0 58.0 10.0 10.0 80 121 72 0 0 1 1 0 0 0 0 0 1
83 27.0 43.0 10.0 9.0 14 134 28 0 0 0 0 0 0 1 0 0 0
84 37.0 31.0 10.0 14.0 19 139 73 0 1 0 1 0 0 0 1 0 0
85 57.0 29.0 10.0 18.0 106 116 55 0 0 0 0 0 0 0 0 1 0
86 63.0 23.0 10.0 2.0 42 162 30 0 1 0 0 0 0 1 0 0 0
87 21.0 24.0 10.0 28.0 77 126 36 0 1 0 0 1 1 0 0 0 0
88 12.0 24.0 10.0 13.0 100 110 10 1 0 1 0 0 1 0 1 0 0
89 24.0 58.0 10.0 19.0 67 96 9 0 1 1 0 0 0 0 0 0 0
90 67.0 5.0 10.0 25.0 105 177 82 0 0 0 0 0 0 1 0 0 0
91 37.0 47.0 10.0 6.0 74 127 63 0 0 1 0 0 0 0 0 0 0
92 49.0 42.0 10.0 13.0 97 217 76 0 1 0 0 1 0 0 0 0 0
93 53.0 43.0 10.0 14.0 15 25 2 0 0 0 0 0 0 0 0 1 0
94 61.0 52.0 10.0 3.0 173 208 93 0 0 1 0 0 0 0 0 0 0
95 57.0 48.0 10.0 23.0 50 170 23 1 0 1 0 0 0 0 0 1 0
96 56.0 37.0 10.0 6.0 20 140 17 0 0 0 0 1 0 0 1 0 1
97 55.0 54.0 10.0 26.0 87 207 63 0 0 0 0 0 0 0 0 1 0
98 4.0 18.0 10.0 35.0 112 157 79 0 0 1 0 1 0 0 0 0 1
99 26.0 52.0 10.0 9.0 14 134 57 0 0 0 0 1 0 0 0 0 1
100 26.0 35.0 10.0 15.0 87 97 1 0 1 0 0 0 0 0 0 0 0
101 31.0 67.0 10.0 3.0 200 210 27 0 0 0 0 0 0 0 1 0 0